(declare-fun var0 () String)
(assert (RegexIn var0 (RegexConcat (RegexStar (RegexPlus (Str2Reg "{"))) (RegexConcat (RegexPlus (RegexStar (Str2Reg "`"))) (RegexConcat (RegexPlus (RegexUnion (Str2Reg "^^") (Str2Reg "_"))) (RegexConcat (RegexStar (RegexUnion (Str2Reg "\\") (Str2Reg "]]"))) (RegexConcat (RegexUnion (RegexUnion (Str2Reg "???") (Str2Reg "@@")) (RegexStar (Str2Reg "[[["))) (RegexConcat (RegexUnion (RegexStar (Str2Reg "==")) (RegexPlus (Str2Reg ">>"))) (RegexConcat (RegexPlus (RegexStar (Str2Reg "<<<"))) (RegexConcat (RegexStar (RegexStar (Str2Reg ";;;"))) (RegexConcat (RegexUnion (RegexUnion (Str2Reg ".") (Str2Reg "//")) (RegexPlus (Str2Reg ":"))) (RegexConcat (RegexUnion (RegexUnion (Str2Reg "+") (Str2Reg ",")) (RegexPlus (Str2Reg "---"))) (RegexConcat (RegexStar (RegexUnion (Str2Reg ")") (Str2Reg "*"))) (RegexConcat (RegexPlus (RegexStar (Str2Reg "("))) (RegexConcat (RegexUnion (RegexStar (Str2Reg "&&&")) (RegexPlus (Str2Reg "''"))) (RegexConcat (RegexPlus (RegexStar (Str2Reg "%"))) (RegexConcat (RegexStar (RegexStar (Str2Reg "$$$"))) (RegexConcat (RegexPlus (RegexUnion (Str2Reg "\"") (Str2Reg "#"))) (RegexConcat (RegexPlus (RegexPlus (Str2Reg "!!!"))) (RegexConcat (RegexUnion (RegexStar (Str2Reg "XXX")) (RegexUnion (Str2Reg "Y") (Str2Reg "Z"))) (RegexConcat (RegexPlus (RegexUnion (Str2Reg "V") (Str2Reg "WW"))) (RegexConcat (RegexPlus (RegexStar (Str2Reg "UUU"))) (RegexConcat (RegexPlus (RegexStar (Str2Reg "T"))) (RegexConcat (RegexUnion (RegexStar (Str2Reg "QQQ")) (RegexUnion (Str2Reg "R") (Str2Reg "SSS"))) (RegexConcat (RegexUnion (RegexPlus (Str2Reg "OO")) (RegexStar (Str2Reg "P"))) (RegexConcat (RegexStar (RegexUnion (Str2Reg "MM") (Str2Reg "N"))) (RegexConcat (RegexUnion (RegexPlus (Str2Reg "K")) (RegexStar (Str2Reg "LL"))) (RegexConcat (RegexStar (RegexUnion (Str2Reg "II") (Str2Reg "J"))) (RegexConcat (RegexUnion (RegexPlus (Str2Reg "G")) (RegexStar (Str2Reg "HHH"))) (RegexConcat (RegexStar (RegexStar (Str2Reg "FF"))) (RegexConcat (RegexStar (RegexStar (Str2Reg "E"))) (RegexConcat (RegexPlus (RegexUnion (Str2Reg "CCC") (Str2Reg "D"))) (RegexConcat (RegexStar (RegexUnion (Str2Reg "A") (Str2Reg "B"))) (RegexConcat (RegexPlus (RegexPlus (Str2Reg "z"))) (RegexConcat (RegexUnion (RegexUnion (Str2Reg "www") (Str2Reg "xx")) (RegexPlus (Str2Reg "yyy"))) (RegexConcat (RegexStar (RegexPlus (Str2Reg "vv"))) (RegexConcat (RegexUnion (RegexUnion (Str2Reg "s") (Str2Reg "ttt")) (RegexPlus (Str2Reg "uu"))) (RegexConcat (RegexStar (RegexPlus (Str2Reg "r"))) (RegexConcat (RegexStar (RegexUnion (Str2Reg "pp") (Str2Reg "qqq"))) (RegexConcat (RegexPlus (RegexStar (Str2Reg "oo"))) (RegexConcat (RegexStar (RegexPlus (Str2Reg "n"))) (RegexConcat (RegexStar (RegexPlus (Str2Reg "m"))) (RegexConcat (RegexStar (RegexPlus (Str2Reg "l"))) (RegexConcat (RegexPlus (RegexPlus (Str2Reg "k"))) (RegexConcat (RegexStar (RegexPlus (Str2Reg "jj"))) (RegexConcat (RegexUnion (RegexPlus (Str2Reg "h")) (RegexStar (Str2Reg "ii"))) (RegexConcat (RegexUnion (RegexPlus (Str2Reg "ee")) (RegexUnion (Str2Reg "f") (Str2Reg "gg"))) (RegexConcat (RegexPlus (RegexUnion (Str2Reg "ccc") (Str2Reg "dd"))) (RegexConcat (RegexPlus (RegexPlus (Str2Reg "bbb"))) (RegexConcat (RegexUnion (RegexStar (Str2Reg "9")) (RegexPlus (Str2Reg "aaa"))) (RegexConcat (RegexStar (RegexPlus (Str2Reg "888"))) (RegexConcat (RegexStar (RegexPlus (Str2Reg "7"))) (RegexConcat (RegexPlus (RegexPlus (Str2Reg "666"))) (RegexConcat (RegexStar (RegexPlus (Str2Reg "5"))) (RegexConcat (RegexUnion (RegexUnion (Str2Reg "22") (Str2Reg "33")) (RegexStar (Str2Reg "4"))) (RegexConcat (RegexPlus (RegexStar (Str2Reg "1"))) (RegexPlus (RegexStar (Str2Reg "000")))))))))))))))))))))))))))))))))))))))))))))))))))))))))))
(check-sat)